% Source:
% https://cracking-the-cryptic.web.app/sudoku/tjN9LtrrTL
given = array2d(0..8, 0..8, [
 0, 0, 0, 0, 0, 0, 0, 0, 0,
 0, 0, 0, 0, 0, 0, 0, 0, 0,
 0, 0, 0, 0, 0, 0, 0, 0, 0,
 0, 0, 0, 0, 0, 0, 0, 0, 0,
 0, 0, 1, 0, 0, 0, 0, 0, 0,
 0, 0, 0, 0, 0, 0, 2, 0, 0,
 0, 0, 0, 0, 0, 0, 0, 0, 0,
 0, 0, 0, 0, 0, 0, 0, 0, 0,
 0, 0, 0, 0, 0, 0, 0, 0, 0,
]);
